(set-info :smt-lib-version 2.6)
(set-logic LIA)
(set-info
  :source |
 Generated by PSyCO 0.1
 More info in N. P. Lopes and J. Monteiro. Weakest Precondition Synthesis for
 Compiler Optimizations, VMCAI'14.
|)
(set-info :category "industrial")
(set-info :status sat)
(declare-fun W_S1_V5 () Bool)
(declare-fun W_S1_V1 () Bool)
(declare-fun W_S2_V2 () Bool)
(declare-fun W_S1_V4 () Bool)
(declare-fun W_S1_V3 () Bool)
(declare-fun W_S1_V2 () Bool)
(declare-fun R_S2_V1 () Bool)
(declare-fun R_S2_V3 () Bool)
(declare-fun R_S2_V5 () Bool)
(declare-fun R_S2_V4 () Bool)
(declare-fun W_S2_V5 () Bool)
(declare-fun R_S2_V2 () Bool)
(declare-fun W_S2_V4 () Bool)
(declare-fun W_S2_V3 () Bool)
(declare-fun W_S2_V1 () Bool)
(declare-fun R_B1_V1 () Bool)
(declare-fun R_B1_V5 () Bool)
(declare-fun R_B1_V4 () Bool)
(declare-fun R_B1_V2 () Bool)
(declare-fun R_B1_V3 () Bool)
(declare-fun R_S1_V1 () Bool)
(declare-fun R_S1_V3 () Bool)
(declare-fun R_S1_V2 () Bool)
(declare-fun R_S1_V5 () Bool)
(declare-fun R_S1_V4 () Bool)
(assert
 (let (($x6649 (not W_S1_V5)))
 (let (($x6644 (not W_S1_V1)))
 (let (($x6643 (not W_S2_V2)))
 (let (($x6642 (not W_S1_V4)))
 (let (($x6641 (not W_S1_V3)))
 (let (($x6584 (not W_S1_V2)))
 (let (($x960 (not R_S2_V1)))
 (let (($x957 (not R_S2_V3)))
 (let (($x953 (not R_S2_V5)))
 (let (($x951 (not R_S2_V4)))
 (let (($x6647 (not W_S2_V5)))
 (let (($x955 (not R_S2_V2)))
 (let (($x6646 (not W_S2_V4)))
 (let (($x6638 (not W_S2_V3)))
 (let (($x1313 (not R_B1_V1)))
 (let (($x1306 (not R_B1_V2)))
 (let (($x1303 (not R_B1_V5)))
 (let (($x1301 (not R_B1_V4)))
 (let (($x1310 (not R_B1_V3)))
 (let (($x6921 (and $x1301 $x1303 $x1306 $x1310 $x1313)))
 (or $x6921 (and $x1303 $x1306 $x1310 $x1313 $x6646)
 (and $x1306 $x1310 $x1313 $x6646 $x6647)
 (and $x1301 $x1310 $x1313 $x6643 $x6647)
 (and $x1303 $x1310 $x1313 $x6643 $x6646)
 (and $x1310 $x1313 $x6643 $x6646 $x6647)
 (and $x951 $x960 $x6584 $x6638 $x6641 $x6642 $x6643 $x6644 $x6647 $x6649)
 (and $x953 $x960 $x6584 $x6638 $x6641 $x6642 $x6643 $x6644 $x6646 $x6649)
 (and $x951 $x953 $x960 $x6584 $x6638 $x6641 $x6642 $x6643 $x6644 $x6649)
 (and $x951 $x955 $x960 $x6584 $x6638 $x6641 $x6642 $x6644 $x6647 $x6649)
 (and $x951 $x953 $x955 $x960 $x6584 $x6638 $x6641 $x6642 $x6644 $x6649)
 (and $x1301 $x1303 $x1310 $x1313 $x6643)
 (and $x1301 $x1306 $x1310 $x1313 $x6647)
 (and $x1301 $x1303 $x1306 $x1313 $x6638)
 (and $x1301 $x1306 $x1313 $x6638 $x6647)
 (and $x1303 $x1306 $x1313 $x6638 $x6646)
 (and $x1306 $x1313 $x6638 $x6646 $x6647)
 (and $x957 $x960 $x6584 $x6641 $x6642 $x6643 $x6644 $x6646 $x6647 $x6649)
 (and $x1301 $x1303 $x1313 $x6638 $x6643)
 (and $x1301 $x1313 $x6638 $x6643 $x6647)
 (and $x1303 $x1313 $x6638 $x6643 $x6646)
 (and $x1313 $x6638 $x6643 $x6646 $x6647)
 (and $x960 $x6584 $x6638 $x6641 $x6642 $x6643 $x6644 $x6646 $x6647 $x6649)
 (and $x955 $x960 $x6584 $x6638 $x6641 $x6642 $x6644 $x6646 $x6647 $x6649)
 (and $x955 $x957 $x960 $x6584 $x6641 $x6642 $x6644 $x6646 $x6647 $x6649)
 (and $x6584 $x6638 $x6641 $x6642 $x6643 $x6644 $x6646 $x6647 $x6649
 (not W_S2_V1))
 (and $x953 $x957 $x960 $x6584 $x6641 $x6642 $x6643 $x6644 $x6646 $x6649)
 (and $x953 $x955 $x960 $x6584 $x6638 $x6641 $x6642 $x6644 $x6646 $x6649)
 (and $x951 $x953 $x955 $x957 $x960 $x6584 $x6641 $x6642 $x6644 $x6649)
 (and $x953 $x955 $x957 $x960 $x6584 $x6641 $x6642 $x6644 $x6646 $x6649)
 (and $x951 $x955 $x957 $x960 $x6584 $x6641 $x6642 $x6644 $x6647 $x6649)
 (and $x951 $x957 $x960 $x6584 $x6641 $x6642 $x6643 $x6644 $x6647 $x6649)
 (and $x951 $x953 $x957 $x960 $x6584 $x6641 $x6642 $x6643 $x6644 $x6649)))))))))))))))))))))))
(assert
 (forall
  ((V4_0 Int) (V5_0 Int) (V2_0 Int) 
   (V3_0 Int) (V1_0 Int) (S1_V4_!15182 Int) 
   (S1_V4_!15194 Int) (S1_V4_!15199 Int) 
   (S2_V4_!15188 Int) (S2_V5_!15189 Int) 
   (S1_V1_!15186 Int) (S1_V1_!15198 Int) 
   (S1_V1_!15203 Int) (S1_V3_!15185 Int) 
   (S1_V3_!15197 Int) (S1_V3_!15202 Int) 
   (S1_V2_!15184 Int) (S1_V2_!15196 Int) 
   (S1_V2_!15201 Int) (B1_!15181 Bool) 
   (B1_!15187 Bool) (B1_!15193 Bool) 
   (S2_V1_!15192 Int) (S2_V2_!15190 Int) 
   (S2_V3_!15191 Int) (S1_V5_!15183 Int) 
   (S1_V5_!15195 Int) (S1_V5_!15200 Int))
  (let ((?x6677 (ite W_S1_V1 S1_V1_!15198 V1_0)))
  (let ((?x6697 (+ 1 ?x6677)))
  (let ((?x6681 (ite W_S1_V1 S1_V1_!15203 ?x6697)))
  (let ((?x6682 (ite W_S1_V1 S1_V1_!15186 V1_0)))
  (let ((?x6703 (+ 1 ?x6682)))
  (let ((?x6696 (ite W_S2_V1 S2_V1_!15192 ?x6703)))
  (let (($x6698 (= ?x6696 ?x6681)))
  (let
  (($x6701
    (= (ite W_S2_V3 S2_V3_!15191 (ite W_S1_V3 S1_V3_!15185 V3_0))
    (ite W_S1_V3 S1_V3_!15202 V3_0))))
  (let ((?x6704 (ite W_S1_V2 S1_V2_!15201 V2_0)))
  (let ((?x6693 (ite W_S1_V2 S1_V2_!15184 V2_0)))
  (let ((?x6694 (ite W_S2_V2 S2_V2_!15190 ?x6693)))
  (let (($x6608 (= ?x6694 ?x6704)))
  (let
  (($x6367
    (= (ite W_S2_V5 S2_V5_!15189 (ite W_S1_V5 S1_V5_!15183 V5_0))
    (ite W_S1_V5 S1_V5_!15200 V5_0))))
  (let
  (($x6808
    (= (ite W_S2_V4 S2_V4_!15188 (ite W_S1_V4 S1_V4_!15182 V4_0))
    (ite W_S1_V4 S1_V4_!15199 V4_0))))
  (let
  (($x8465
    (and (not (<= V2_0 V1_0)) B1_!15181 
    (not (<= ?x6693 ?x6703)) 
    (not B1_!15187) (>= ?x6696 (+ (- 1) ?x6694)) B1_!15193
    (not (<= (ite W_S1_V2 S1_V2_!15196 V2_0) ?x6697))
    (>= ?x6681 (+ (- 1) ?x6704)))))
  (let (($x5989 (= S1_V5_!15200 S1_V5_!15183)))
  (let (($x823 (not R_S1_V3)))
  (let (($x6293 (or $x823 (= (ite W_S1_V3 S1_V3_!15197 V3_0) V3_0))))
  (let (($x821 (not R_S1_V2)))
  (let (($x6015 (or $x821 (= (ite W_S1_V2 S1_V2_!15196 V2_0) V2_0))))
  (let (($x819 (not R_S1_V5)))
  (let (($x6291 (or $x819 (= (ite W_S1_V5 S1_V5_!15195 V5_0) V5_0))))
  (let (($x817 (not R_S1_V4)))
  (let (($x6252 (or $x817 (= (ite W_S1_V4 S1_V4_!15194 V4_0) V4_0))))
  (let
  (($x6288
    (and $x6252 $x6291 $x6015 $x6293
    (or (not R_S1_V1) (= ?x6677 (+ (- 1) V1_0))))))
  (let (($x6289 (not $x6288)))
  (let (($x5974 (= S1_V5_!15195 S1_V5_!15200)))
  (let (($x6156 (or $x823 (= V3_0 (ite W_S1_V3 S1_V3_!15197 V3_0)))))
  (let (($x6166 (or $x821 (= V2_0 (ite W_S1_V2 S1_V2_!15196 V2_0)))))
  (let (($x6284 (or $x819 (= V5_0 (ite W_S1_V5 S1_V5_!15195 V5_0)))))
  (let (($x6294 (or $x817 (= V4_0 (ite W_S1_V4 S1_V4_!15194 V4_0)))))
  (let
  (($x5993
    (not
    (and $x6294 $x6284 $x6166 $x6156 (or (not R_S1_V1) (= V1_0 ?x6697))))))
  (let (($x6345 (= S1_V5_!15195 S1_V5_!15183)))
  (let (($x1310 (not R_B1_V3)))
  (let (($x6272 (or $x1310 (= V3_0 (ite W_S1_V3 S1_V3_!15185 V3_0)))))
  (let (($x1306 (not R_B1_V2)))
  (let (($x6270 (or $x1306 (= V2_0 ?x6693))))
  (let (($x1303 (not R_B1_V5)))
  (let (($x6266 (or $x1303 (= V5_0 (ite W_S1_V5 S1_V5_!15183 V5_0)))))
  (let (($x1301 (not R_B1_V4)))
  (let (($x6268 (or $x1301 (= V4_0 (ite W_S1_V4 S1_V4_!15182 V4_0)))))
  (let
  (($x6342
    (or
    (not
    (and $x6268 $x6266 $x6270 $x6272 (or (not R_B1_V1) (= V1_0 ?x6703))))
    (= B1_!15193 B1_!15187))))
  (let
  (($x6008
    (or
    (not
    (and $x6268 $x6266 $x6270 $x6272 (or (not R_B1_V1) (= V1_0 ?x6703))))
    (= B1_!15181 B1_!15187))))
  (let (($x6339 (= S1_V2_!15196 S1_V2_!15184)))
  (let (($x6330 (= S1_V3_!15185 S1_V3_!15197)))
  (let (($x6329 (= S1_V1_!15186 S1_V1_!15198)))
  (let (($x6154 (= S1_V4_!15182 S1_V4_!15194)))
  (let
  (($x6171
    (and $x6154 (or $x6289 (= S1_V4_!15199 S1_V4_!15182))
    (or $x6289 (= S1_V4_!15199 S1_V4_!15194)) $x6329
    (or $x5993 (= S1_V1_!15186 S1_V1_!15203))
    (or $x5993 (= S1_V1_!15198 S1_V1_!15203)) $x6330
    (or $x6289 (= S1_V3_!15202 S1_V3_!15185))
    (or $x6289 (= S1_V3_!15202 S1_V3_!15197))
    (or $x5993 (= S1_V2_!15184 S1_V2_!15201)) $x6339
    (or $x5993 (= S1_V2_!15196 S1_V2_!15201)) $x6008 
    (= B1_!15181 B1_!15193) $x6342 $x6345 
    (or $x5993 $x5974) (or $x6289 $x5989))))
  (or (not $x6171) (not $x8465) (and $x6808 $x6367 $x6608 $x6701 $x6698))))))))))))))))))))))))))))))))))))))))))))))))))))
(assert
 (let (($x1313 (not R_B1_V1)))
 (let (($x1310 (not R_B1_V3)))
 (let (($x1306 (not R_B1_V2)))
 (let (($x1303 (not R_B1_V5)))
 (let (($x1301 (not R_B1_V4)))
 (let (($x6921 (and $x1301 $x1303 $x1306 $x1310 $x1313))) (not $x6921))))))))
(assert
 (let (($x6641 (not W_S1_V3)))
 (let (($x1313 (not R_B1_V1)))
 (let (($x1306 (not R_B1_V2)))
 (let (($x1303 (not R_B1_V5)))
 (let (($x1301 (not R_B1_V4)))
 (not (and $x1301 $x1303 $x1306 $x1313 $x6641))))))))
(assert
 (let (($x6584 (not W_S1_V2)))
 (let (($x1313 (not R_B1_V1)))
 (let (($x1310 (not R_B1_V3)))
 (let (($x1303 (not R_B1_V5)))
 (let (($x1301 (not R_B1_V4)))
 (not (and $x1301 $x1303 $x1310 $x1313 $x6584))))))))
(assert
 (let (($x6641 (not W_S1_V3)))
 (let (($x6584 (not W_S1_V2)))
 (let (($x1313 (not R_B1_V1)))
 (let (($x1303 (not R_B1_V5)))
 (let (($x1301 (not R_B1_V4)))
 (not (and $x1301 $x1303 $x1313 $x6584 $x6641))))))))
(assert
 (let (($x6642 (not W_S1_V4)))
 (let (($x1313 (not R_B1_V1)))
 (let (($x1310 (not R_B1_V3)))
 (let (($x1306 (not R_B1_V2)))
 (let (($x1303 (not R_B1_V5)))
 (not (and $x1303 $x1306 $x1310 $x1313 $x6642))))))))
(assert
 (let (($x6642 (not W_S1_V4)))
 (let (($x6584 (not W_S1_V2)))
 (let (($x1313 (not R_B1_V1)))
 (let (($x1310 (not R_B1_V3)))
 (let (($x1303 (not R_B1_V5)))
 (not (and $x1303 $x1310 $x1313 $x6584 $x6642))))))))
(assert
 (let (($x6642 (not W_S1_V4)))
 (let (($x6641 (not W_S1_V3)))
 (let (($x6584 (not W_S1_V2)))
 (let (($x1313 (not R_B1_V1)))
 (let (($x1303 (not R_B1_V5)))
 (not (and $x1303 $x1313 $x6584 $x6641 $x6642))))))))
(assert
 (let (($x6649 (not W_S1_V5)))
 (let (($x1313 (not R_B1_V1)))
 (let (($x1310 (not R_B1_V3)))
 (let (($x1306 (not R_B1_V2)))
 (let (($x1301 (not R_B1_V4)))
 (not (and $x1301 $x1306 $x1310 $x1313 $x6649))))))))
(assert
 (let (($x6649 (not W_S1_V5)))
 (let (($x6642 (not W_S1_V4)))
 (let (($x1313 (not R_B1_V1)))
 (let (($x1310 (not R_B1_V3)))
 (let (($x1306 (not R_B1_V2)))
 (not (and $x1306 $x1310 $x1313 $x6642 $x6649))))))))
(assert
 (let (($x6649 (not W_S1_V5)))
 (let (($x6584 (not W_S1_V2)))
 (let (($x1313 (not R_B1_V1)))
 (let (($x1310 (not R_B1_V3)))
 (let (($x1301 (not R_B1_V4)))
 (not (and $x1301 $x1310 $x1313 $x6584 $x6649))))))))
(assert
 (let (($x6649 (not W_S1_V5)))
 (let (($x6642 (not W_S1_V4)))
 (let (($x6584 (not W_S1_V2)))
 (let (($x1313 (not R_B1_V1)))
 (let (($x1310 (not R_B1_V3)))
 (not (and $x1310 $x1313 $x6584 $x6642 $x6649))))))))
(assert
 (let (($x6649 (not W_S1_V5)))
 (let (($x6641 (not W_S1_V3)))
 (let (($x6584 (not W_S1_V2)))
 (let (($x1313 (not R_B1_V1)))
 (let (($x1301 (not R_B1_V4)))
 (not (and $x1301 $x1313 $x6584 $x6641 $x6649))))))))
(assert
 (let (($x6649 (not W_S1_V5)))
 (let (($x6642 (not W_S1_V4)))
 (let (($x6641 (not W_S1_V3)))
 (let (($x6584 (not W_S1_V2)))
 (let (($x1313 (not R_B1_V1)))
 (not (and $x1313 $x6584 $x6641 $x6642 $x6649))))))))
(assert
 (let (($x7225 (not W_S2_V1)))
 (let (($x6649 (not W_S1_V5)))
 (let (($x6647 (not W_S2_V5)))
 (let (($x6646 (not W_S2_V4)))
 (let (($x6643 (not W_S2_V2)))
 (let (($x6642 (not W_S1_V4)))
 (let (($x6641 (not W_S1_V3)))
 (let (($x6638 (not W_S2_V3)))
 (let (($x6584 (not W_S1_V2)))
 (not (and $x6584 $x6638 $x6641 $x6642 $x6643 $x6646 $x6647 $x6649 $x7225))))))))))))
(assert
 (let (($x7225 (not W_S2_V1)))
 (let (($x6647 (not W_S2_V5)))
 (let (($x6646 (not W_S2_V4)))
 (let (($x6643 (not W_S2_V2)))
 (let (($x6642 (not W_S1_V4)))
 (let (($x6641 (not W_S1_V3)))
 (let (($x6638 (not W_S2_V3)))
 (let (($x6584 (not W_S1_V2)))
 (let (($x826 (not R_S1_V1)))
 (let (($x819 (not R_S1_V5)))
 (not
 (and $x819 $x826 $x6584 $x6638 $x6641 $x6642 $x6643 $x6646 $x6647 $x7225)))))))))))))
(assert
 (let (($x7225 (not W_S2_V1)))
 (let (($x6647 (not W_S2_V5)))
 (let (($x6646 (not W_S2_V4)))
 (let (($x6643 (not W_S2_V2)))
 (let (($x6641 (not W_S1_V3)))
 (let (($x6638 (not W_S2_V3)))
 (let (($x6584 (not W_S1_V2)))
 (let (($x826 (not R_S1_V1)))
 (let (($x819 (not R_S1_V5)))
 (let (($x817 (not R_S1_V4)))
 (not
 (and $x817 $x819 $x826 $x6584 $x6638 $x6641 $x6643 $x6646 $x6647 $x7225)))))))))))))
(assert
 (let (($x7225 (not W_S2_V1)))
 (let (($x6647 (not W_S2_V5)))
 (let (($x6646 (not W_S2_V4)))
 (let (($x6643 (not W_S2_V2)))
 (let (($x6642 (not W_S1_V4)))
 (let (($x6641 (not W_S1_V3)))
 (let (($x6638 (not W_S2_V3)))
 (let (($x826 (not R_S1_V1)))
 (let (($x821 (not R_S1_V2)))
 (let (($x819 (not R_S1_V5)))
 (not
 (and $x819 $x821 $x826 $x6638 $x6641 $x6642 $x6643 $x6646 $x6647 $x7225)))))))))))))
(assert
 (let (($x7225 (not W_S2_V1)))
 (let (($x6647 (not W_S2_V5)))
 (let (($x6646 (not W_S2_V4)))
 (let (($x6643 (not W_S2_V2)))
 (let (($x6641 (not W_S1_V3)))
 (let (($x6638 (not W_S2_V3)))
 (let (($x826 (not R_S1_V1)))
 (let (($x821 (not R_S1_V2)))
 (let (($x819 (not R_S1_V5)))
 (let (($x817 (not R_S1_V4)))
 (not
 (and $x817 $x819 $x821 $x826 $x6638 $x6641 $x6643 $x6646 $x6647 $x7225)))))))))))))
(assert
 (let (($x6649 (not W_S1_V5)))
 (let (($x6641 (not W_S1_V3)))
 (let (($x1313 (not R_B1_V1)))
 (let (($x1306 (not R_B1_V2)))
 (let (($x1301 (not R_B1_V4)))
 (not (and $x1301 $x1306 $x1313 $x6641 $x6649))))))))
(assert
 (let (($x7225 (not W_S2_V1)))
 (let (($x6649 (not W_S1_V5)))
 (let (($x6647 (not W_S2_V5)))
 (let (($x6646 (not W_S2_V4)))
 (let (($x6643 (not W_S2_V2)))
 (let (($x6642 (not W_S1_V4)))
 (let (($x6641 (not W_S1_V3)))
 (let (($x6638 (not W_S2_V3)))
 (let (($x826 (not R_S1_V1)))
 (let (($x821 (not R_S1_V2)))
 (not
 (and $x821 $x826 $x6638 $x6641 $x6642 $x6643 $x6646 $x6647 $x6649 $x7225)))))))))))))
(assert
 (let (($x6642 (not W_S1_V4)))
 (let (($x6641 (not W_S1_V3)))
 (let (($x1313 (not R_B1_V1)))
 (let (($x1306 (not R_B1_V2)))
 (let (($x1303 (not R_B1_V5)))
 (not (and $x1303 $x1306 $x1313 $x6641 $x6642))))))))
(assert
 (let (($x6649 (not W_S1_V5)))
 (let (($x6642 (not W_S1_V4)))
 (let (($x6641 (not W_S1_V3)))
 (let (($x1313 (not R_B1_V1)))
 (let (($x1306 (not R_B1_V2)))
 (not (and $x1306 $x1313 $x6641 $x6642 $x6649))))))))
(assert
 (let (($x6584 (not W_S1_V2)))
 (let (($x826 (not R_S1_V1)))
 (let (($x823 (not R_S1_V3)))
 (let (($x819 (not R_S1_V5)))
 (let (($x817 (not R_S1_V4)))
 (not (and W_S1_V1 $x817 $x819 $x823 $x826 $x6584))))))))
(assert
 (let (($x6641 (not W_S1_V3)))
 (let (($x6584 (not W_S1_V2)))
 (let (($x826 (not R_S1_V1)))
 (let (($x819 (not R_S1_V5)))
 (let (($x817 (not R_S1_V4)))
 (not (and W_S1_V1 $x817 $x819 $x826 $x6584 $x6641))))))))
(assert
 (let (($x6642 (not W_S1_V4)))
 (let (($x6584 (not W_S1_V2)))
 (let (($x826 (not R_S1_V1)))
 (let (($x823 (not R_S1_V3)))
 (let (($x819 (not R_S1_V5)))
 (not (and W_S1_V1 $x819 $x823 $x826 $x6584 $x6642))))))))
(assert
 (let (($x6642 (not W_S1_V4)))
 (let (($x6641 (not W_S1_V3)))
 (let (($x6584 (not W_S1_V2)))
 (let (($x826 (not R_S1_V1)))
 (let (($x819 (not R_S1_V5)))
 (not (and W_S1_V1 $x819 $x826 $x6584 $x6641 $x6642))))))))
(assert
 (let (($x826 (not R_S1_V1)))
 (let (($x823 (not R_S1_V3)))
 (let (($x821 (not R_S1_V2)))
 (let (($x819 (not R_S1_V5)))
 (let (($x817 (not R_S1_V4)))
 (not (and W_S1_V1 $x817 $x819 $x821 $x823 $x826))))))))
(assert
 (let (($x6642 (not W_S1_V4)))
 (let (($x826 (not R_S1_V1)))
 (let (($x823 (not R_S1_V3)))
 (let (($x821 (not R_S1_V2)))
 (let (($x819 (not R_S1_V5)))
 (not (and W_S1_V1 $x819 $x821 $x823 $x826 $x6642))))))))
(assert
 (let (($x6641 (not W_S1_V3)))
 (let (($x826 (not R_S1_V1)))
 (let (($x821 (not R_S1_V2)))
 (let (($x819 (not R_S1_V5)))
 (let (($x817 (not R_S1_V4)))
 (not (and W_S1_V1 $x817 $x819 $x821 $x826 $x6641))))))))
(assert
 (let (($x6642 (not W_S1_V4)))
 (let (($x6641 (not W_S1_V3)))
 (let (($x826 (not R_S1_V1)))
 (let (($x821 (not R_S1_V2)))
 (let (($x819 (not R_S1_V5)))
 (not (and W_S1_V1 $x819 $x821 $x826 $x6641 $x6642))))))))
(assert
 (let (($x6649 (not W_S1_V5)))
 (let (($x826 (not R_S1_V1)))
 (let (($x823 (not R_S1_V3)))
 (let (($x821 (not R_S1_V2)))
 (let (($x817 (not R_S1_V4)))
 (not (and W_S1_V1 $x817 $x821 $x823 $x826 $x6649))))))))
(assert
 (let (($x6649 (not W_S1_V5)))
 (let (($x6642 (not W_S1_V4)))
 (let (($x826 (not R_S1_V1)))
 (let (($x823 (not R_S1_V3)))
 (let (($x821 (not R_S1_V2)))
 (not (and W_S1_V1 $x821 $x823 $x826 $x6642 $x6649))))))))
(assert
 (let (($x6649 (not W_S1_V5)))
 (let (($x6641 (not W_S1_V3)))
 (let (($x826 (not R_S1_V1)))
 (let (($x821 (not R_S1_V2)))
 (let (($x817 (not R_S1_V4)))
 (not (and W_S1_V1 $x817 $x821 $x826 $x6641 $x6649))))))))
(assert
 (let (($x6649 (not W_S1_V5)))
 (let (($x6642 (not W_S1_V4)))
 (let (($x6641 (not W_S1_V3)))
 (let (($x826 (not R_S1_V1)))
 (let (($x821 (not R_S1_V2)))
 (not (and W_S1_V1 $x821 $x826 $x6641 $x6642 $x6649))))))))
(check-sat)
(exit)

